vulnerability_examples/vulnerable_contracts/swc-101/case_study/Z3_smt.smt2
(declare-datatypes ((struct_type_pointer_struct 0)) (((struct_type_pointer_struct (pointer_object (_ BitVec 64)) (pointer_offset (_ BitVec 64))))))
(declare-datatypes ((struct_type_addr_space_type 0)) (((struct_type_addr_space_type (start (_ BitVec 64)) (end (_ BitVec 64))))))
(declare-fun __ESBMC_ptr_obj_start_0 () (_ BitVec 64))
(declare-fun __ESBMC_ptr_obj_end_0 () (_ BitVec 64))
(declare-fun __ESBMC_ptr_obj_start_1 () (_ BitVec 64))
(declare-fun __ESBMC_ptr_obj_end_1 () (_ BitVec 64))
(declare-fun __ESBMC_ptr_addr_range_0 () struct_type_addr_space_type)
(declare-fun __ESBMC_ptr_addr_range_1 () struct_type_addr_space_type)
(declare-fun __ESBMC_addrspace_arr_2
             ()
             (Array (_ BitVec 64) struct_type_addr_space_type))
(declare-fun __ESBMC_addrspace_arr_1
             ()
             (Array (_ BitVec 64) struct_type_addr_space_type))
(declare-fun __ESBMC_addrspace_arr_3
             ()
             (Array (_ BitVec 64) struct_type_addr_space_type))
(declare-fun |0| () struct_type_pointer_struct)
(declare-fun NULL () struct_type_pointer_struct)
(declare-fun INVALID () struct_type_pointer_struct)
(declare-fun |sol:@F@func_case_study::$tmp::return_value$_nondet$1?1!0&0#1|
             ()
             (_ BitVec 8))
(declare-fun |sol:MyContract_case_study.solast@445@F@nondet@i?1!0&0#0|
             ()
             (_ BitVec 8))
(declare-fun |sol:MyContract_case_study.solast@445@F@func_case_study@y?1!0&0#1|
             ()
             (_ BitVec 8))
(declare-fun |goto_symex::guard?0!0&0#1| () Bool)
(declare-fun |sol:MyContract_case_study.solast@445@F@func_case_study@sum?1!0&0#3|
             ()
             (_ BitVec 8))
(declare-fun |execution_statet::\\guard_exec?0!0| () Bool)
(assert (= __ESBMC_ptr_obj_start_0 #x0000000000000000))
(assert (= __ESBMC_ptr_obj_end_0 #x0000000000000000))
(assert (= __ESBMC_ptr_obj_start_1 #x0000000000000001))
(assert (= __ESBMC_ptr_obj_end_1 #xffffffffffffffff))
(assert (= __ESBMC_ptr_addr_range_0
   (struct_type_addr_space_type __ESBMC_ptr_obj_start_0 __ESBMC_ptr_obj_end_0)))
(assert (= __ESBMC_ptr_addr_range_1
   (struct_type_addr_space_type __ESBMC_ptr_obj_start_1 __ESBMC_ptr_obj_end_1)))
(assert (= (store __ESBMC_addrspace_arr_1
          #x0000000000000000
          (struct_type_addr_space_type
            __ESBMC_ptr_obj_start_0
            __ESBMC_ptr_obj_end_0))
   __ESBMC_addrspace_arr_2))
(assert (= (store __ESBMC_addrspace_arr_2
          #x0000000000000001
          (struct_type_addr_space_type
            __ESBMC_ptr_obj_start_1
            __ESBMC_ptr_obj_end_1))
   __ESBMC_addrspace_arr_3))
(assert (= |0| (struct_type_pointer_struct #x0000000000000000 #x0000000000000000)))
(assert (= NULL (struct_type_pointer_struct #x0000000000000000 #x0000000000000000)))
(assert (= INVALID (struct_type_pointer_struct #x0000000000000001 #x0000000000000000)))
(assert (= |sol:MyContract_case_study.solast@445@F@nondet@i?1!0&0#0|
   |sol:@F@func_case_study::$tmp::return_value$_nondet$1?1!0&0#1|))
(assert (= |sol:@F@func_case_study::$tmp::return_value$_nondet$1?1!0&0#1|
   |sol:MyContract_case_study.solast@445@F@func_case_study@y?1!0&0#1|))
(assert (= (bvsgt ((_ zero_extend 24)
            |sol:MyContract_case_study.solast@445@F@func_case_study@y?1!0&0#1|)
          #x000000fd)
   |goto_symex::guard?0!0&0#1|))
(assert (= (ite |goto_symex::guard?0!0&0#1| #x07 #xfe)
   |sol:MyContract_case_study.solast@445@F@func_case_study@sum?1!0&0#3|))
(assert (let ((a!1 (=> true
               (=> |execution_statet::\\guard_exec?0!0|
                   (bvsgt ((_ zero_extend 24)
                            |sol:MyContract_case_study.solast@445@F@func_case_study@sum?1!0&0#3|)
                          #x00000064)))))
  (not a!1)))

